6 36
0 0 2147483647
0 1 28
1 0 28
0 2 91
2 0 91
0 3 55
3 0 55
0 4 82
4 0 82
0 5 26
5 0 26
1 1 2147483647
1 2 55
2 1 55
1 3 46
3 1 46
1 4 60
4 1 60
1 5 94
5 1 94
2 2 2147483647
2 3 3
3 2 3
2 4 97
4 2 97
2 5 60
5 2 60
3 3 2147483647
3 4 89
4 3 89
3 5 62
5 3 62
4 4 2147483647
4 5 6
5 4 6
5 5 2147483647
